NAME          BLANK   
ROWS
 N  OBJROW
 L  R0000000
COLUMNS
    C0000000  OBJROW     -628.         R0000000  254.        
    C0000001  OBJROW     -293.         R0000000  68.         
    C0000002  OBJROW     -318.         R0000000  766.        
    C0000003  OBJROW     -948.         R0000000  432.        
    C0000004  OBJROW     -679.         R0000000  762.        
    C0000005  OBJROW     -432.         R0000000  519.        
    C0000006  OBJROW     -265.         R0000000  599.        
    C0000007  OBJROW     -225.         R0000000  538.        
    C0000008  OBJROW     -918.         R0000000  381.        
    C0000009  OBJROW     -973.         R0000000  247.        
    C0000010  OBJROW     -900.         R0000000  668.        
    C0000011  OBJROW     -350.         R0000000  301.        
    C0000012  OBJROW     -52.          R0000000  646.        
    C0000013  OBJROW     -250.         R0000000  56.         
    C0000014  OBJROW     -782.         R0000000  154.        
    C0000015  OBJROW     -494.         R0000000  675.        
    C0000016  OBJROW     -755.         R0000000  937.        
    C0000017  OBJROW     -769.         R0000000  593.        
    C0000018  OBJROW     -882.         R0000000  534.        
    C0000019  OBJROW     -602.         R0000000  584.        
RHS
    RHS       R0000000  15314.      
BOUNDS
 BV BOUND     C0000000  1.          
 BV BOUND     C0000001  1.          
 BV BOUND     C0000002  1.          
 BV BOUND     C0000003  1.          
 BV BOUND     C0000004  1.          
 BV BOUND     C0000005  1.          
 BV BOUND     C0000006  1.          
 BV BOUND     C0000007  1.          
 BV BOUND     C0000008  1.          
 BV BOUND     C0000009  1.          
 BV BOUND     C0000010  1.          
 BV BOUND     C0000011  1.          
 BV BOUND     C0000012  1.          
 BV BOUND     C0000013  1.          
 BV BOUND     C0000014  1.          
 BV BOUND     C0000015  1.          
 BV BOUND     C0000016  1.          
 BV BOUND     C0000017  1.          
 BV BOUND     C0000018  1.          
 BV BOUND     C0000019  1.          
ENDATA
